(declare-fun ExpandObjSwitcher () Real)
(declare-fun CreateAsClass () Bool)
(declare-fun Constructed_Argument_t () String)
(assert (not (= ExpandObjSwitcher 0.0)))
(assert (not (= ExpandObjSwitcher 1.0)))
(assert (not (= ExpandObjSwitcher 2.0)))
(assert (= ExpandObjSwitcher 3.0))
(assert (not CreateAsClass))
(assert (= Constructed_Argument_t "string"))
(check-sat)
